ATOMIC_SPECIES
Fe   55.845  Fe_ONCV_PBE-1.2.upf  
H     1.008   H_ONCV_PBE-1.2.upf  
Ni  58.6934  Ni_ONCV_PBE-1.2.upf  
S     32.06   S_ONCV_PBE-1.2.upf  

LATTICE_CONSTANT
1.8897261258369282

LATTICE_VECTORS
10.044 0.0 0.0
0.0 10.044 0.0
0.0 0.0 10.044

ATOMIC_POSITIONS
Cartesian

Fe
0.0
20
5.022 5.022 5.022 m 1 1 1 v 0.0 0.0 0.0
8.7885 6.2775 6.2775 m 1 1 1 v 0.0 0.0 0.0
1.2555 3.7665 6.2775 m 1 1 1 v 0.0 0.0 0.0
8.7885 3.7665 3.7665 m 1 1 1 v 0.0 0.0 0.0
1.2555 6.2775 3.7665 m 1 1 1 v 0.0 0.0 0.0
1.2555 3.7665 3.7665 m 1 1 1 v 0.0 0.0 0.0
8.7885 6.2775 3.7665 m 1 1 1 v 0.0 0.0 0.0
1.2555 6.2775 6.2775 m 1 1 1 v 0.0 0.0 0.0
8.7885 1.2555 1.2555 m 1 1 1 v 0.0 0.0 0.0
1.2555 8.7885 1.2555 m 1 1 1 v 0.0 0.0 0.0
8.7885 3.7665 6.2775 m 1 1 1 v 0.0 0.0 0.0
1.2555 1.2555 8.7885 m 1 1 1 v 0.0 0.0 0.0
8.7885 8.7885 8.7885 m 1 1 1 v 0.0 0.0 0.0
0.0 5.022 0.0 m 1 1 1 v 0.0 0.0 0.0
0.0 0.0 5.022 m 1 1 1 v 0.0 0.0 0.0
1.2555 1.2555 1.2555 m 1 1 1 v 0.0 0.0 0.0
5.022 0.0 0.0 m 1 1 1 v 0.0 0.0 0.0
8.7885 1.2555 8.7885 m 1 1 1 v 0.0 0.0 0.0
1.2555 8.7885 8.7885 m 1 1 1 v 0.0 0.0 0.0
8.7885 8.7885 1.2555 m 1 1 1 v 0.0 0.0 0.0

H
0.0
1
2.317617618065533 2.5051360326852836 2.5050227607432096 m 1 1 1 v 0.0 0.0 0.0

Ni
0.0
16
3.7665 3.7665 1.2555 m 1 1 1 v 0.0 0.0 0.0
3.7665 6.2775 1.2555 m 1 1 1 v 0.0 0.0 0.0
6.2775 3.7665 1.2555 m 1 1 1 v 0.0 0.0 0.0
3.7665 3.7665 8.7885 m 1 1 1 v 0.0 0.0 0.0
6.2775 3.7665 8.7885 m 1 1 1 v 0.0 0.0 0.0
3.7665 6.2775 8.7885 m 1 1 1 v 0.0 0.0 0.0
6.2775 6.2775 1.2555 m 1 1 1 v 0.0 0.0 0.0
6.2775 6.2775 8.7885 m 1 1 1 v 0.0 0.0 0.0
6.2775 8.7885 6.2775 m 1 1 1 v 0.0 0.0 0.0
3.7665 8.7885 3.7665 m 1 1 1 v 0.0 0.0 0.0
6.2775 1.2555 3.7665 m 1 1 1 v 0.0 0.0 0.0
6.2775 8.7885 3.7665 m 1 1 1 v 0.0 0.0 0.0
3.7665 1.2555 3.7665 m 1 1 1 v 0.0 0.0 0.0
3.7665 8.7885 6.2775 m 1 1 1 v 0.0 0.0 0.0
6.2775 1.2555 6.2775 m 1 1 1 v 0.0 0.0 0.0
3.7665 1.2555 6.2775 m 1 1 1 v 0.0 0.0 0.0

S
0.0
30
0.0 5.022 7.533 m 1 1 1 v 0.0 0.0 0.0
0.0 5.022 2.511 m 1 1 1 v 0.0 0.0 0.0
7.533 0.0 5.022 m 1 1 1 v 0.0 0.0 0.0
2.511 0.0 5.022 m 1 1 1 v 0.0 0.0 0.0
5.022 2.511 5.022 m 1 1 1 v 0.0 0.0 0.0
7.533 5.022 0.0 m 1 1 1 v 0.0 0.0 0.0
5.022 0.0 7.533 m 1 1 1 v 0.0 0.0 0.0
5.022 0.0 2.511 m 1 1 1 v 0.0 0.0 0.0
0.0 2.511 5.022 m 1 1 1 v 0.0 0.0 0.0
2.511 5.022 0.0 m 1 1 1 v 0.0 0.0 0.0
5.022 7.533 0.0 m 1 1 1 v 0.0 0.0 0.0
5.022 2.511 0.0 m 1 1 1 v 0.0 0.0 0.0
5.022 7.533 5.022 m 1 1 1 v 0.0 0.0 0.0
0.0 7.533 5.022 m 1 1 1 v 0.0 0.0 0.0
0.0 0.0 2.511 m 1 1 1 v 0.0 0.0 0.0
2.511 5.022 5.022 m 1 1 1 v 0.0 0.0 0.0
0.0 0.0 7.533 m 1 1 1 v 0.0 0.0 0.0
0.0 7.533 0.0 m 1 1 1 v 0.0 0.0 0.0
0.0 2.511 0.0 m 1 1 1 v 0.0 0.0 0.0
7.533 0.0 0.0 m 1 1 1 v 0.0 0.0 0.0
7.533 2.511 2.511 m 1 1 1 v 0.0 0.0 0.0
2.511 7.533 2.511 m 1 1 1 v 0.0 0.0 0.0
7.533 7.533 7.533 m 1 1 1 v 0.0 0.0 0.0
2.511 2.511 7.533 m 1 1 1 v 0.0 0.0 0.0
2.511 7.533 7.533 m 1 1 1 v 0.0 0.0 0.0
7.533 2.511 7.533 m 1 1 1 v 0.0 0.0 0.0
7.533 7.533 2.511 m 1 1 1 v 0.0 0.0 0.0
5.022 5.022 2.511 m 1 1 1 v 0.0 0.0 0.0
7.533 5.022 5.022 m 1 1 1 v 0.0 0.0 0.0
5.022 5.022 7.533 m 1 1 1 v 0.0 0.0 0.0
